100
125
99
99
96
95
94
94
94
93
92
91
91
91
90
90
89
89
89
86
86
85
85
82
81
80
79
78
77
76
76
76
75
74
70
68
68
67
67
66
65
64
62
62
61
61
61
59
58
56
54
52
51
50
50
50
49
49
48
48
48
47
47
45
43
43
41
41
38
38
38
31
31
30
29
28
27
27
27
26
26
25
24
23
23
21
21
17
17
17
17
16
15
15
14
14
14
13
13
13
13
12
